0001 6
0002 5
0003 2
0004 1
0005 18
0006 18
0007 18
0008 17
0009 18
0010 8
0011 10
0012 12
0013 14
0014 2
0015 2
0016 6
0017 15
0018 15
0019 16
0020 11
0021 9
0022 1
0023 4
0024 3
0025 18
0026 17
0027 8
0028 13
0029 13
0030 12
0031 6
0032 10
0033 14
0034 7
0035 1
0036 5
0037 2
0038 18
0039 15
0040 11
0041 13
0042 5
0043 17
0044 1
0045 2
0046 16
0047 18
0048 4
0049 10
0050 12
0051 15
0052 14
0053 4
0054 10
0055 6
0056 3
0057 13
0058 2
0059 18
0060 7
0061 15
0062 12
0063 17
0064 5
0065 4
0066 18
0067 3
0068 9
0069 8
0070 14
0071 7
0072 17
0073 17
0074 12
0075 3
0076 9
0077 5
0078 1
0079 7
0080 15
0081 12
